NAME: random problem
TYPE: MTSP
COMMENT: MTSP problem for MRS UAV summer school
DIMENSION: 20
NUMBER_OF_ROBOTS: 2
START_TARGET_INDEXES: 1, 2
NEIGHBORHOOD_RADIUS: 2
EDGE_WEIGHT_TYPE: EUC_2D
NODE_COORD_SECTION
1 15.0 -21.0
2 -5.0 -25.0
3 -8.2 6.4
4 11.1 -24.0
5 -7.2 -29.1
6 -22.1 8.4
7 -32.6 -11.1
8 0.2 -13.5
9 -21.1 -0.9
10 25.9 7.6
11 -8.9 7.6
12 -23.4 -33.8
13 -12.7 1.7
14 -35.4 -7.6
15 24.0 14.9
16 -6.1 -27.6
17 -11.3 -19.5
18 -5.9 -15.8
19 15.3 -6.6
20 -5.1 15.1
EOF
